p cnf 412 698
49 -16 -59 76 0
49 -16 -59 -76 0
-47 4 24 77 0
-47 4 24 -77 0
26 71 -67 78 0
26 71 -67 -78 0
-7 74 46 79 0
-7 74 46 -79 0
1 35 27 80 0
1 35 27 -80 0
42 50 52 81 0
42 50 52 -81 0
-20 58 21 82 0
-20 58 21 -82 0
-67 -54 -17 83 0
-67 -54 -17 -83 0
44 -70 -38 84 0
44 -70 -38 -84 0
-18 -41 22 85 0
-18 -41 22 -85 0
-6 -41 73 86 0
-6 -41 73 -86 0
73 -11 67 87 0
73 -11 67 -87 0
-39 45 -75 88 0
-39 45 -75 -88 0
-20 72 57 89 0
-20 72 57 -89 0
-45 -29 -63 90 0
-45 -29 -63 -90 0
14 -3 28 91 0
14 -3 28 -91 0
21 -57 29 92 0
21 -57 29 -92 0
33 39 52 93 0
33 39 52 -93 0
19 38 1 94 0
19 38 1 -94 0
23 -65 -41 95 0
23 -65 -41 -95 0
72 70 41 96 0
72 70 41 -96 0
-42 -27 7 97 0
-42 -27 7 -97 0
-1 71 -45 98 0
-1 71 -45 -98 0
-56 -46 -27 99 0
-56 -46 -27 -99 0
68 36 -33 100 0
68 36 -33 -100 0
74 10 -37 101 0
74 10 -37 -101 0
-63 42 -68 102 0
-63 42 -68 -102 0
58 1 44 103 0
58 1 44 -103 0
-15 -73 59 104 0
-15 -73 59 -104 0
64 -36 65 105 0
64 -36 65 -105 0
-17 -37 16 106 0
-17 -37 16 -106 0
40 47 73 107 0
40 47 73 -107 0
-31 -12 3 108 0
-31 -12 3 -108 0
31 -61 -27 109 0
31 -61 -27 -109 0
44 -45 -31 110 0
44 -45 -31 -110 0
-38 -8 30 111 0
-38 -8 30 -111 0
9 -25 59 112 0
9 -25 59 -112 0
9 12 -24 113 0
9 12 -24 -113 0
-41 -42 55 114 0
-41 -42 55 -114 0
63 -25 -7 115 0
63 -25 -7 -115 0
-11 -20 -5 116 0
-11 -20 -5 -116 0
53 6 -16 117 0
53 6 -16 -117 0
-49 21 9 118 0
-49 21 9 -118 0
-66 -72 -62 119 0
-66 -72 -62 -119 0
7 -52 -67 120 0
7 -52 -67 -120 0
10 -6 -68 121 0
10 -6 -68 -121 0
6 -23 72 122 0
6 -23 72 -122 0
18 32 -29 123 0
18 32 -29 -123 0
47 -20 -57 124 0
47 -20 -57 -124 0
-1 72 23 125 0
-1 72 23 -125 0
40 20 -23 126 0
40 20 -23 -126 0
23 -40 -15 127 0
23 -40 -15 -127 0
-27 3 -30 128 0
-27 3 -30 -128 0
40 1 -3 129 0
40 1 -3 -129 0
67 34 -64 130 0
67 34 -64 -130 0
-32 65 -19 131 0
-32 65 -19 -131 0
-47 -45 18 132 0
-47 -45 18 -132 0
59 -15 5 133 0
59 -15 5 -133 0
-73 -35 -75 134 0
-73 -35 -75 -134 0
-48 -26 -56 135 0
-48 -26 -56 -135 0
-19 -40 -73 136 0
-19 -40 -73 -136 0
44 31 -67 137 0
44 31 -67 -137 0
14 34 74 138 0
14 34 74 -138 0
25 -63 -68 139 0
25 -63 -68 -139 0
-16 17 -11 140 0
-16 17 -11 -140 0
-51 23 26 141 0
-51 23 26 -141 0
23 64 -42 142 0
23 64 -42 -142 0
9 -33 -19 143 0
9 -33 -19 -143 0
41 10 35 144 0
41 10 35 -144 0
17 -50 20 145 0
17 -50 20 -145 0
13 -22 -45 146 0
13 -22 -45 -146 0
49 17 -54 147 0
49 17 -54 -147 0
1 -40 30 148 0
1 -40 30 -148 0
67 -12 -25 149 0
67 -12 -25 -149 0
-30 61 33 150 0
-30 61 33 -150 0
-72 25 41 151 0
-72 25 41 -151 0
-35 9 -51 152 0
-35 9 -51 -152 0
30 -36 -71 153 0
30 -36 -71 -153 0
-13 -74 -14 154 0
-13 -74 -14 -154 0
-41 14 17 155 0
-41 14 17 -155 0
-3 -42 54 156 0
-3 -42 54 -156 0
-24 20 18 157 0
-24 20 18 -157 0
-50 -39 58 158 0
-50 -39 58 -158 0
-33 52 31 159 0
-33 52 31 -159 0
15 -74 -27 160 0
15 -74 -27 -160 0
44 -54 -11 161 0
44 -54 -11 -161 0
-31 -65 15 162 0
-31 -65 15 -162 0
-71 39 64 163 0
-71 39 64 -163 0
-11 42 5 164 0
-11 42 5 -164 0
54 -27 35 165 0
54 -27 35 -165 0
-49 -27 64 166 0
-49 -27 64 -166 0
-55 -4 21 167 0
-55 -4 21 -167 0
19 46 -47 168 0
19 46 -47 -168 0
-35 34 22 169 0
-35 34 22 -169 0
1 -54 -62 170 0
1 -54 -62 -170 0
46 33 -71 171 0
46 33 -71 -171 0
65 -70 48 172 0
65 -70 48 -172 0
-19 8 69 173 0
-19 8 69 -173 0
-46 49 -52 174 0
-46 49 -52 -174 0
27 -13 31 175 0
27 -13 31 -175 0
-58 -18 -46 176 0
-58 -18 -46 -176 0
-22 -41 -57 177 0
-22 -41 -57 -177 0
17 -69 -53 178 0
17 -69 -53 -178 0
28 29 -41 179 0
28 29 -41 -179 0
55 -48 66 180 0
55 -48 66 -180 0
-24 43 55 181 0
-24 43 55 -181 0
56 42 -72 182 0
56 42 -72 -182 0
-8 -52 40 183 0
-8 -52 40 -183 0
52 -14 -18 184 0
52 -14 -18 -184 0
72 45 61 185 0
72 45 61 -185 0
30 73 3 186 0
30 73 3 -186 0
-5 60 31 187 0
-5 60 31 -187 0
50 -71 -42 188 0
50 -71 -42 -188 0
12 70 -41 189 0
12 70 -41 -189 0
24 8 7 190 0
24 8 7 -190 0
32 -44 -35 191 0
32 -44 -35 -191 0
68 -72 -37 192 0
68 -72 -37 -192 0
-26 -13 53 193 0
-26 -13 53 -193 0
57 58 -29 194 0
57 58 -29 -194 0
-61 -35 -48 195 0
-61 -35 -48 -195 0
-29 75 30 196 0
-29 75 30 -196 0
41 -27 -19 197 0
41 -27 -19 -197 0
59 -75 -70 198 0
59 -75 -70 -198 0
69 -48 25 199 0
69 -48 25 -199 0
62 -56 -71 200 0
62 -56 -71 -200 0
-21 -1 -39 201 0
-21 -1 -39 -201 0
73 29 -24 202 0
73 29 -24 -202 0
-74 -14 -72 203 0
-74 -14 -72 -203 0
-35 -43 36 204 0
-35 -43 36 -204 0
21 52 -12 205 0
21 52 -12 -205 0
55 32 -59 206 0
55 32 -59 -206 0
-16 5 1 207 0
-16 5 1 -207 0
37 21 45 208 0
37 21 45 -208 0
-22 49 -62 209 0
-22 49 -62 -209 0
14 -54 -28 210 0
14 -54 -28 -210 0
-8 -50 70 211 0
-8 -50 70 -211 0
-39 -8 7 212 0
-39 -8 7 -212 0
-71 -8 -49 213 0
-71 -8 -49 -213 0
-59 -63 -37 214 0
-59 -63 -37 -214 0
-21 58 -48 215 0
-21 58 -48 -215 0
12 15 16 216 0
12 15 16 -216 0
9 45 -17 217 0
9 45 -17 -217 0
44 -5 71 218 0
44 -5 71 -218 0
-5 -30 -25 219 0
-5 -30 -25 -219 0
35 -20 -52 220 0
35 -20 -52 -220 0
-49 5 73 221 0
-49 5 73 -221 0
73 19 -48 222 0
73 19 -48 -222 0
2 62 72 223 0
2 62 72 -223 0
-23 -62 -58 224 0
-23 -62 -58 -224 0
23 -6 28 225 0
23 -6 28 -225 0
-3 4 8 226 0
-3 4 8 -226 0
65 -33 -59 227 0
65 -33 -59 -227 0
5 68 -27 228 0
5 68 -27 -228 0
36 34 46 229 0
36 34 46 -229 0
70 -44 38 230 0
70 -44 38 -230 0
-32 -1 -40 231 0
-32 -1 -40 -231 0
50 -59 11 232 0
50 -59 11 -232 0
73 -67 69 233 0
73 -67 69 -233 0
-9 -28 -39 234 0
-9 -28 -39 -234 0
-11 -40 29 235 0
-11 -40 29 -235 0
-10 -18 28 236 0
-10 -18 28 -236 0
-28 -31 -4 237 0
-28 -31 -4 -237 0
41 61 -56 238 0
41 61 -56 -238 0
39 -17 -1 239 0
39 -17 -1 -239 0
62 -7 -12 240 0
62 -7 -12 -240 0
-42 -64 -15 241 0
-42 -64 -15 -241 0
14 66 27 242 0
14 66 27 -242 0
-8 70 75 243 0
-8 70 75 -243 0
37 -67 26 244 0
37 -67 26 -244 0
9 -56 28 245 0
9 -56 28 -245 0
17 37 71 246 0
17 37 71 -246 0
-28 -45 -24 247 0
-28 -45 -24 -247 0
-69 48 68 248 0
-69 48 68 -248 0
-18 -67 -27 249 0
-18 -67 -27 -249 0
64 41 1 250 0
64 41 1 -250 0
-25 74 3 251 0
-25 74 3 -251 0
-8 -73 -60 252 0
-8 -73 -60 -252 0
-55 54 10 253 0
-55 54 10 -253 0
49 53 -2 254 0
49 53 -2 -254 0
-49 21 -29 255 0
-49 21 -29 -255 0
-56 53 63 256 0
-56 53 63 -256 0
20 41 -15 257 0
20 41 -15 -257 0
-42 -7 53 258 0
-42 -7 53 -258 0
-62 28 65 259 0
-62 28 65 -259 0
51 -2 -42 260 0
51 -2 -42 -260 0
-69 32 47 261 0
-69 32 47 -261 0
73 -34 -45 262 0
73 -34 -45 -262 0
-11 -5 -2 263 0
-11 -5 -2 -263 0
-75 44 9 264 0
-75 44 9 -264 0
-10 9 38 265 0
-10 9 38 -265 0
47 -6 -45 266 0
47 -6 -45 -266 0
-22 -60 -18 267 0
-22 -60 -18 -267 0
-62 -8 -61 268 0
-62 -8 -61 -268 0
-45 -70 -12 269 0
-45 -70 -12 -269 0
-15 -69 -52 270 0
-15 -69 -52 -270 0
66 16 -71 271 0
66 16 -71 -271 0
20 -56 -42 272 0
20 -56 -42 -272 0
19 34 -46 273 0
19 34 -46 -273 0
-47 -67 36 274 0
-47 -67 36 -274 0
27 60 -12 275 0
27 60 -12 -275 0
-69 -27 73 276 0
-69 -27 73 -276 0
46 -7 -12 277 0
46 -7 -12 -277 0
52 -62 -18 278 0
52 -62 -18 -278 0
64 38 32 279 0
64 38 32 -279 0
-43 -48 61 280 0
-43 -48 61 -280 0
36 45 49 281 0
36 45 49 -281 0
65 4 43 282 0
65 4 43 -282 0
60 67 -72 283 0
60 67 -72 -283 0
-42 2 -25 284 0
-42 2 -25 -284 0
-75 -68 -18 285 0
-75 -68 -18 -285 0
-7 -8 -38 286 0
-7 -8 -38 -286 0
-17 31 74 287 0
-17 31 74 -287 0
-70 17 6 288 0
-70 17 6 -288 0
54 -60 -22 289 0
54 -60 -22 -289 0
-48 -57 40 290 0
-48 -57 40 -290 0
58 48 -20 291 0
58 48 -20 -291 0
17 45 -16 292 0
17 45 -16 -292 0
30 22 64 293 0
30 22 64 -293 0
55 -67 -66 294 0
55 -67 -66 -294 0
49 42 -30 295 0
49 42 -30 -295 0
-25 15 -43 296 0
-25 15 -43 -296 0
-30 -52 -40 297 0
-30 -52 -40 -297 0
18 -20 15 298 0
18 -20 15 -298 0
13 35 19 299 0
13 35 19 -299 0
51 9 55 300 0
51 9 55 -300 0
-75 46 -25 301 0
-75 46 -25 -301 0
38 44 36 302 0
38 44 36 -302 0
71 31 47 303 0
71 31 47 -303 0
-38 -49 61 304 0
-38 -49 61 -304 0
-69 28 -30 305 0
-69 28 -30 -305 0
59 -33 21 306 0
59 -33 21 -306 0
68 -38 5 307 0
68 -38 5 -307 0
54 -36 49 308 0
54 -36 49 -308 0
51 -8 60 309 0
51 -8 60 -309 0
57 58 64 310 0
57 58 64 -310 0
61 14 -54 311 0
61 14 -54 -311 0
-43 -13 -17 312 0
-43 -13 -17 -312 0
-65 -19 -18 313 0
-65 -19 -18 -313 0
49 -20 -72 314 0
49 -20 -72 -314 0
-70 -38 -42 315 0
-70 -38 -42 -315 0
-4 -35 10 316 0
-4 -35 10 -316 0
-36 -9 44 317 0
-36 -9 44 -317 0
-34 45 -28 318 0
-34 45 -28 -318 0
41 57 -17 319 0
41 57 -17 -319 0
-22 -10 35 320 0
-22 -10 35 -320 0
-60 -71 42 321 0
-60 -71 42 -321 0
-26 -14 -16 322 0
-26 -14 -16 -322 0
3 25 -41 323 0
3 25 -41 -323 0
-27 42 -31 324 0
-27 42 -31 -324 0
-40 24 -55 325 0
-40 24 -55 -325 0
-7 -72 43 326 0
-7 -72 43 -326 0
-55 18 35 327 0
-55 18 35 -327 0
66 -14 -51 328 0
66 -14 -51 -328 0
5 -71 18 329 0
5 -71 18 -329 0
-5 3 -45 330 0
-5 3 -45 -330 0
-31 -8 -54 331 0
-31 -8 -54 -331 0
-19 35 -62 332 0
-19 35 -62 -332 0
-4 -21 -12 333 0
-4 -21 -12 -333 0
-30 55 50 334 0
-30 55 50 -334 0
69 19 16 335 0
69 19 16 -335 0
-19 33 24 336 0
-19 33 24 -336 0
42 49 -39 337 0
42 49 -39 -337 0
-27 30 -13 338 0
-27 30 -13 -338 0
-18 38 -44 339 0
-18 38 -44 -339 0
5 -4 2 340 0
5 -4 2 -340 0
-37 -60 -36 341 0
-37 -60 -36 -341 0
65 -24 -39 342 0
65 -24 -39 -342 0
20 -4 19 343 0
20 -4 19 -343 0
-21 -59 -64 344 0
-21 -59 -64 -344 0
-47 56 -2 345 0
-47 56 -2 -345 0
51 37 27 346 0
51 37 27 -346 0
-2 -12 32 347 0
-2 -12 32 -347 0
-31 59 -12 348 0
-31 59 -12 -348 0
1 36 -65 349 0
1 36 -65 -349 0
-71 -67 66 350 0
-71 -67 66 -350 0
19 -30 -60 351 0
19 -30 -60 -351 0
-32 64 24 352 0
-32 64 24 -352 0
28 11 43 353 0
28 11 43 -353 0
-2 62 -56 354 0
-2 62 -56 -354 0
-55 -7 -58 355 0
-55 -7 -58 -355 0
-2 68 -4 356 0
-2 68 -4 -356 0
54 -55 -44 357 0
54 -55 -44 -357 0
34 4 6 358 0
34 4 6 -358 0
22 -7 17 359 0
22 -7 17 -359 0
-68 52 34 360 0
-68 52 34 -360 0
26 23 2 361 0
26 23 2 -361 0
-10 -63 -4 362 0
-10 -63 -4 -362 0
-49 25 -58 363 0
-49 25 -58 -363 0
10 -48 -69 364 0
10 -48 -69 -364 0
54 42 -43 365 0
54 42 -43 -365 0
21 -43 12 366 0
21 -43 12 -366 0
-47 -7 -9 367 0
-47 -7 -9 -367 0
29 33 -23 368 0
29 33 -23 -368 0
-74 -21 -68 369 0
-74 -21 -68 -369 0
-26 36 -38 370 0
-26 36 -38 -370 0
20 -26 -7 371 0
20 -26 -7 -371 0
23 -55 -27 372 0
23 -55 -27 -372 0
-40 -2 -68 373 0
-40 -2 -68 -373 0
-72 -71 -59 374 0
-72 -71 -59 -374 0
69 27 68 375 0
69 27 68 -375 0
16 -24 33 376 0
16 -24 33 -376 0
74 -63 58 377 0
74 -63 58 -377 0
-6 34 38 378 0
-6 34 38 -378 0
-64 -7 -9 379 0
-64 -7 -9 -379 0
13 -43 25 380 0
13 -43 25 -380 0
-12 14 52 381 0
-12 14 52 -381 0
47 -34 -4 382 0
47 -34 -4 -382 0
66 -65 -32 383 0
66 -65 -32 -383 0
-41 51 48 384 0
-41 51 48 -384 0
-48 -36 -65 385 0
-48 -36 -65 -385 0
26 52 3 386 0
26 52 3 -386 0
20 67 -71 387 0
20 67 -71 -387 0
-21 -13 44 388 0
-21 -13 44 -388 0
-19 -7 6 389 0
-19 -7 6 -389 0
14 29 64 390 0
14 29 64 -390 0
-66 -52 5 391 0
-66 -52 5 -391 0
30 74 -17 392 0
30 74 -17 -392 0
-5 42 52 393 0
-5 42 52 -393 0
4 38 24 394 0
4 38 24 -394 0
38 -43 -33 395 0
38 -43 -33 -395 0
-55 36 35 396 0
-55 36 35 -396 0
9 59 13 397 0
9 59 13 -397 0
-65 -14 1 398 0
-65 -14 1 -398 0
58 -66 57 399 0
58 -66 57 -399 0
-10 -38 53 400 0
-10 -38 53 -400 0
401 402 403 404 0
401 402 403 -404 0
401 402 -403 404 0
401 402 -403 -404 0
401 -402 403 404 0
401 -402 403 -404 0
401 -402 -403 404 0
401 -402 -403 -404 0
-401 402 403 404 0
-401 402 403 -404 0
-401 402 -403 404 0
-401 402 -403 -404 0
-401 -402 403 404 0
-401 -402 403 -404 0
-401 -402 -403 404 0
-401 -402 -403 -404 0
405 406 407 408 0
405 406 407 -408 0
405 406 -407 408 0
405 406 -407 -408 0
405 -406 407 408 0
405 -406 407 -408 0
405 -406 -407 408 0
405 -406 -407 -408 0
-405 406 407 408 0
-405 406 407 -408 0
-405 406 -407 408 0
-405 406 -407 -408 0
-405 -406 407 408 0
-405 -406 407 -408 0
-405 -406 -407 408 0
-405 -406 -407 -408 0
409 410 411 412 0
409 410 411 -412 0
409 410 -411 412 0
409 410 -411 -412 0
409 -410 411 412 0
409 -410 411 -412 0
409 -410 -411 412 0
409 -410 -411 -412 0
-409 410 411 412 0
-409 410 411 -412 0
-409 410 -411 412 0
-409 410 -411 -412 0
-409 -410 411 412 0
-409 -410 411 -412 0
-409 -410 -411 412 0
-409 -410 -411 -412 0
